(set-logic QF_S)
(declare-fun var_0xINPUT_130232 () String)
(assert (and (= (len var_0xINPUT_130232) 0) (= (len var_0xINPUT_130232) 0) (not (= var_0xINPUT_130232 "Example:")) (not (= var_0xINPUT_130232 "AA1ND6MEXd"))))
(check-sat var_0xINPUT_130232)